c A SAT instance generated from a 3-CNF formula that had 28 clauses and 7 variables
p cnf 7 28
1 -4 -6 0
-3 6 -5 0
2 5 -1 0
-5 -1 -3 0
2 1 6 0
5 -3 -6 0
7 4 5 0
2 -1 -7 0
1 6 -3 0
-6 -1 -5 0
4 -3 5 0
7 2 -6 0
-5 6 -3 0
6 -5 -4 0
-5 7 -6 0
-4 -7 3 0
-1 -7 3 0
-4 6 -1 0
1 -6 -2 0
3 6 -2 0
7 1 -2 0
-4 -7 -5 0
-7 4 -3 0
5 -6 -1 0
1 -4 3 0
-6 4 -2 0
1 -3 -4 0
-6 -4 1 0
